Running for instance ./models/r206.txt
Generating routes...
Execution time:  2.905059  seconds
Academic license - for non-commercial use only
Warning: constraint name "Cliente esta na rota x1" has a space
Optimize a model with 26 rows, 10000 columns and 86532 nonzeros
Variable types: 0 continuous, 10000 integer (0 binary)
Coefficient statistics:
  Matrix range     [1e+00, 1e+00]
  Objective range  [2e+01, 4e+02]
  Bounds range     [1e+00, 1e+00]
  RHS range        [1e+00, 2e+01]
Found heuristic solution: objective 735.6200409
Presolve removed 1 rows and 4873 columns
Presolve time: 0.07s
Presolved: 25 rows, 5127 columns, 36204 nonzeros
Found heuristic solution: objective 692.9663982
Variable types: 0 continuous, 5127 integer (5127 binary)

Root relaxation: objective 4.870146e+02, 68 iterations, 0.00 seconds

    Nodes    |    Current Node    |     Objective Bounds      |     Work
 Expl Unexpl |  Obj  Depth IntInf | Incumbent    BestBd   Gap | It/Node Time

     0     0  487.01465    0   10  692.96640  487.01465  29.7%     -    0s
H    0     0                     574.3630240  487.01465  15.2%     -    0s
H    0     0                     510.7594723  487.01465  4.65%     -    0s
     0     0  487.01465    0   10  510.75947  487.01465  4.65%     -    0s
     0     0  488.71958    0    8  510.75947  488.71958  4.32%     -    0s
H    0     0                     506.8671705  488.71958  3.58%     -    0s
     0     0  488.93408    0    9  506.86717  488.93408  3.54%     -    0s
*    0     0               0     489.7569127  489.75691  0.00%     -    0s

Explored 1 nodes (100 simplex iterations) in 0.16 seconds
Thread count was 8 (of 8 available processors)

Solution count 5: 489.757 506.867 510.759 ... 692.966

Optimal solution found (tolerance 1.00e-04)
Best objective 4.897569127406e+02, best bound 4.897569127406e+02, gap 0.0000%

Routes:
14 16 15 22 23
13 2 21 4 25 24 12 3 1 7 5 17
18 6
8 11 19 10 20 9

Distance: 489.756912741
Execution time:  3.963212  seconds
